(set-logic QF_NIA)
(set-info :source |
     Constraint systems stating that a matrix interpretation is
     compatible with a rewriting system (weakly compatible with
     all rules, strictly compatible with at least one).

     Contributed by Johannes Waldmann at HTKW Leipzig.
   |)
(set-info :smt-lib-version 2.0)
(set-info :category "crafted")
(set-info :status sat)
(declare-fun n0 () Int)
(assert (>= n0 0))
(declare-fun n1 () Int)
(assert (>= n1 0))
(declare-fun n2 () Int)
(assert (>= n2 0))
(declare-fun n3 () Int)
(assert (>= n3 0))
(declare-fun n4 () Int)
(assert (>= n4 0))
(declare-fun n5 () Int)
(assert (>= n5 0))
(declare-fun n6 () Int)
(assert (>= n6 0))
(declare-fun n7 () Int)
(assert (>= n7 0))
(declare-fun n8 () Int)
(assert (>= n8 0))
(declare-fun n9 () Int)
(assert (>= n9 0))
(declare-fun n10 () Int)
(assert (>= n10 0))
(declare-fun n11 () Int)
(assert (>= n11 0))
(declare-fun n12 () Int)
(assert (>= n12 0))
(declare-fun n13 () Int)
(assert (>= n13 0))
(declare-fun n14 () Int)
(assert (>= n14 0))
(declare-fun n15 () Int)
(assert (>= n15 0))
(declare-fun n16 () Int)
(assert (>= n16 0))
(declare-fun n17 () Int)
(assert (>= n17 0))
(declare-fun n18 () Int)
(assert (>= n18 0))
(declare-fun n19 () Int)
(assert (>= n19 0))
(declare-fun n20 () Int)
(assert (>= n20 0))
(declare-fun n21 () Int)
(assert (>= n21 0))
(declare-fun n22 () Int)
(assert (>= n22 0))
(declare-fun n23 () Int)
(assert (>= n23 0))
(declare-fun n24 () Int)
(assert (>= n24 0))
(declare-fun n25 () Int)
(assert (>= n25 0))
(declare-fun n26 () Int)
(assert (>= n26 0))
(declare-fun n27 () Int)
(assert (>= n27 0))
(declare-fun n28 () Int)
(assert (>= n28 0))
(declare-fun n29 () Int)
(assert (>= n29 0))
(declare-fun n30 () Int)
(assert (>= n30 0))
(declare-fun n31 () Int)
(assert (>= n31 0))
(declare-fun n32 () Int)
(assert (>= n32 0))
(declare-fun n33 () Int)
(assert (>= n33 0))
(declare-fun n34 () Int)
(assert (>= n34 0))
(declare-fun n35 () Int)
(assert (>= n35 0))
(declare-fun n36 () Int)
(assert (= n36 (* n14 n30)))
(declare-fun n37 () Int)
(assert (= n37 (* n15 n31)))
(declare-fun n38 () Int)
(assert (= n38 (* n16 n30)))
(declare-fun n39 () Int)
(assert (= n39 (* n17 n31)))
(declare-fun n40 () Int)
(assert (= n40 (+ n36 n37)))
(declare-fun n41 () Int)
(assert (= n41 (+ n38 n39)))
(declare-fun n42 () Int)
(assert (= n42 (+ n12 n40)))
(declare-fun n43 () Int)
(assert (= n43 (+ n13 n41)))
(declare-fun n44 () Int)
(assert (= n44 (* n14 n32)))
(declare-fun n45 () Int)
(assert (= n45 (* n15 n34)))
(declare-fun n46 () Int)
(assert (= n46 (* n14 n33)))
(declare-fun n47 () Int)
(assert (= n47 (* n15 n35)))
(declare-fun n48 () Int)
(assert (= n48 (* n16 n32)))
(declare-fun n49 () Int)
(assert (= n49 (* n17 n34)))
(declare-fun n50 () Int)
(assert (= n50 (* n16 n33)))
(declare-fun n51 () Int)
(assert (= n51 (* n17 n35)))
(declare-fun n52 () Int)
(assert (= n52 (+ n44 n45)))
(declare-fun n53 () Int)
(assert (= n53 (+ n46 n47)))
(declare-fun n54 () Int)
(assert (= n54 (+ n48 n49)))
(declare-fun n55 () Int)
(assert (= n55 (+ n50 n51)))
(declare-fun n56 () Int)
(assert (= n56 (* n32 n12)))
(declare-fun n57 () Int)
(assert (= n57 (* n33 n13)))
(declare-fun n58 () Int)
(assert (= n58 (* n34 n12)))
(declare-fun n59 () Int)
(assert (= n59 (* n35 n13)))
(declare-fun n60 () Int)
(assert (= n60 (+ n56 n57)))
(declare-fun n61 () Int)
(assert (= n61 (+ n58 n59)))
(declare-fun n62 () Int)
(assert (= n62 (+ n30 n60)))
(declare-fun n63 () Int)
(assert (= n63 (+ n31 n61)))
(declare-fun n64 () Int)
(assert (= n64 (* n32 n14)))
(declare-fun n65 () Int)
(assert (= n65 (* n33 n16)))
(declare-fun n66 () Int)
(assert (= n66 (* n32 n15)))
(declare-fun n67 () Int)
(assert (= n67 (* n33 n17)))
(declare-fun n68 () Int)
(assert (= n68 (* n34 n14)))
(declare-fun n69 () Int)
(assert (= n69 (* n35 n16)))
(declare-fun n70 () Int)
(assert (= n70 (* n34 n15)))
(declare-fun n71 () Int)
(assert (= n71 (* n35 n17)))
(declare-fun n72 () Int)
(assert (= n72 (+ n64 n65)))
(declare-fun n73 () Int)
(assert (= n73 (+ n66 n67)))
(declare-fun n74 () Int)
(assert (= n74 (+ n68 n69)))
(declare-fun n75 () Int)
(assert (= n75 (+ n70 n71)))
(declare-fun n76 () Int)
(assert (= n76 (* n4 n24)))
(declare-fun n77 () Int)
(assert (= n77 (* n5 n25)))
(declare-fun n78 () Int)
(assert (= n78 (+ n76 n77)))
(declare-fun n79 () Int)
(assert (= n79 (+ n3 n78)))
(declare-fun n80 () Int)
(assert (= n80 (* n4 n26)))
(declare-fun n81 () Int)
(assert (= n81 (* n5 n28)))
(declare-fun n82 () Int)
(assert (= n82 (* n4 n27)))
(declare-fun n83 () Int)
(assert (= n83 (* n5 n29)))
(declare-fun n84 () Int)
(assert (= n84 (+ n80 n81)))
(declare-fun n85 () Int)
(assert (= n85 (+ n82 n83)))
(declare-fun n86 () Int)
(assert (= n86 (* n4 n42)))
(declare-fun n87 () Int)
(assert (= n87 (* n5 n43)))
(declare-fun n88 () Int)
(assert (= n88 (+ n86 n87)))
(declare-fun n89 () Int)
(assert (= n89 (+ n3 n88)))
(declare-fun n90 () Int)
(assert (= n90 (* n4 n52)))
(declare-fun n91 () Int)
(assert (= n91 (* n5 n54)))
(declare-fun n92 () Int)
(assert (= n92 (* n4 n53)))
(declare-fun n93 () Int)
(assert (= n93 (* n5 n55)))
(declare-fun n94 () Int)
(assert (= n94 (+ n90 n91)))
(declare-fun n95 () Int)
(assert (= n95 (+ n92 n93)))
(assert (>= n79 n89))
(assert (>= n84 n94))
(assert (>= n85 n95))
(declare-fun n96 () Int)
(assert (= n96 (* n14 n24)))
(declare-fun n97 () Int)
(assert (= n97 (* n15 n25)))
(declare-fun n98 () Int)
(assert (= n98 (* n16 n24)))
(declare-fun n99 () Int)
(assert (= n99 (* n17 n25)))
(declare-fun n100 () Int)
(assert (= n100 (+ n96 n97)))
(declare-fun n101 () Int)
(assert (= n101 (+ n98 n99)))
(declare-fun n102 () Int)
(assert (= n102 (+ n12 n100)))
(declare-fun n103 () Int)
(assert (= n103 (+ n13 n101)))
(declare-fun n104 () Int)
(assert (= n104 (* n14 n26)))
(declare-fun n105 () Int)
(assert (= n105 (* n15 n28)))
(declare-fun n106 () Int)
(assert (= n106 (* n14 n27)))
(declare-fun n107 () Int)
(assert (= n107 (* n15 n29)))
(declare-fun n108 () Int)
(assert (= n108 (* n16 n26)))
(declare-fun n109 () Int)
(assert (= n109 (* n17 n28)))
(declare-fun n110 () Int)
(assert (= n110 (* n16 n27)))
(declare-fun n111 () Int)
(assert (= n111 (* n17 n29)))
(declare-fun n112 () Int)
(assert (= n112 (+ n104 n105)))
(declare-fun n113 () Int)
(assert (= n113 (+ n106 n107)))
(declare-fun n114 () Int)
(assert (= n114 (+ n108 n109)))
(declare-fun n115 () Int)
(assert (= n115 (+ n110 n111)))
(declare-fun n116 () Int)
(assert (= n116 (* n26 n12)))
(declare-fun n117 () Int)
(assert (= n117 (* n27 n13)))
(declare-fun n118 () Int)
(assert (= n118 (* n28 n12)))
(declare-fun n119 () Int)
(assert (= n119 (* n29 n13)))
(declare-fun n120 () Int)
(assert (= n120 (+ n116 n117)))
(declare-fun n121 () Int)
(assert (= n121 (+ n118 n119)))
(declare-fun n122 () Int)
(assert (= n122 (+ n24 n120)))
(declare-fun n123 () Int)
(assert (= n123 (+ n25 n121)))
(declare-fun n124 () Int)
(assert (= n124 (* n26 n14)))
(declare-fun n125 () Int)
(assert (= n125 (* n27 n16)))
(declare-fun n126 () Int)
(assert (= n126 (* n26 n15)))
(declare-fun n127 () Int)
(assert (= n127 (* n27 n17)))
(declare-fun n128 () Int)
(assert (= n128 (* n28 n14)))
(declare-fun n129 () Int)
(assert (= n129 (* n29 n16)))
(declare-fun n130 () Int)
(assert (= n130 (* n28 n15)))
(declare-fun n131 () Int)
(assert (= n131 (* n29 n17)))
(declare-fun n132 () Int)
(assert (= n132 (+ n124 n125)))
(declare-fun n133 () Int)
(assert (= n133 (+ n126 n127)))
(declare-fun n134 () Int)
(assert (= n134 (+ n128 n129)))
(declare-fun n135 () Int)
(assert (= n135 (+ n130 n131)))
(assert (>= n102 n122))
(assert (>= n103 n123))
(assert (>= n112 n132))
(assert (>= n113 n133))
(assert (>= n114 n134))
(assert (>= n115 n135))
(declare-fun n136 () Int)
(assert (= n136 (* n72 n12)))
(declare-fun n137 () Int)
(assert (= n137 (* n73 n13)))
(declare-fun n138 () Int)
(assert (= n138 (* n74 n12)))
(declare-fun n139 () Int)
(assert (= n139 (* n75 n13)))
(declare-fun n140 () Int)
(assert (= n140 (+ n136 n137)))
(declare-fun n141 () Int)
(assert (= n141 (+ n138 n139)))
(declare-fun n142 () Int)
(assert (= n142 (+ n62 n140)))
(declare-fun n143 () Int)
(assert (= n143 (+ n63 n141)))
(declare-fun n144 () Int)
(assert (= n144 (* n72 n14)))
(declare-fun n145 () Int)
(assert (= n145 (* n73 n16)))
(declare-fun n146 () Int)
(assert (= n146 (* n72 n15)))
(declare-fun n147 () Int)
(assert (= n147 (* n73 n17)))
(declare-fun n148 () Int)
(assert (= n148 (* n74 n14)))
(declare-fun n149 () Int)
(assert (= n149 (* n75 n16)))
(declare-fun n150 () Int)
(assert (= n150 (* n74 n15)))
(declare-fun n151 () Int)
(assert (= n151 (* n75 n17)))
(declare-fun n152 () Int)
(assert (= n152 (+ n144 n145)))
(declare-fun n153 () Int)
(assert (= n153 (+ n146 n147)))
(declare-fun n154 () Int)
(assert (= n154 (+ n148 n149)))
(declare-fun n155 () Int)
(assert (= n155 (+ n150 n151)))
(declare-fun n156 () Int)
(assert (= n156 (* n14 n42)))
(declare-fun n157 () Int)
(assert (= n157 (* n15 n43)))
(declare-fun n158 () Int)
(assert (= n158 (* n16 n42)))
(declare-fun n159 () Int)
(assert (= n159 (* n17 n43)))
(declare-fun n160 () Int)
(assert (= n160 (+ n156 n157)))
(declare-fun n161 () Int)
(assert (= n161 (+ n158 n159)))
(declare-fun n162 () Int)
(assert (= n162 (+ n12 n160)))
(declare-fun n163 () Int)
(assert (= n163 (+ n13 n161)))
(declare-fun n164 () Int)
(assert (= n164 (* n14 n52)))
(declare-fun n165 () Int)
(assert (= n165 (* n15 n54)))
(declare-fun n166 () Int)
(assert (= n166 (* n14 n53)))
(declare-fun n167 () Int)
(assert (= n167 (* n15 n55)))
(declare-fun n168 () Int)
(assert (= n168 (* n16 n52)))
(declare-fun n169 () Int)
(assert (= n169 (* n17 n54)))
(declare-fun n170 () Int)
(assert (= n170 (* n16 n53)))
(declare-fun n171 () Int)
(assert (= n171 (* n17 n55)))
(declare-fun n172 () Int)
(assert (= n172 (+ n164 n165)))
(declare-fun n173 () Int)
(assert (= n173 (+ n166 n167)))
(declare-fun n174 () Int)
(assert (= n174 (+ n168 n169)))
(declare-fun n175 () Int)
(assert (= n175 (+ n170 n171)))
(assert (>= n142 n162))
(assert (>= n143 n163))
(assert (>= n152 n172))
(assert (>= n153 n173))
(assert (>= n154 n174))
(assert (>= n155 n175))
(declare-fun n176 () Int)
(assert (= n176 (* n20 n24)))
(declare-fun n177 () Int)
(assert (= n177 (* n21 n25)))
(declare-fun n178 () Int)
(assert (= n178 (* n22 n24)))
(declare-fun n179 () Int)
(assert (= n179 (* n23 n25)))
(declare-fun n180 () Int)
(assert (= n180 (+ n176 n177)))
(declare-fun n181 () Int)
(assert (= n181 (+ n178 n179)))
(declare-fun n182 () Int)
(assert (= n182 (+ n18 n180)))
(declare-fun n183 () Int)
(assert (= n183 (+ n19 n181)))
(declare-fun n184 () Int)
(assert (= n184 (* n20 n26)))
(declare-fun n185 () Int)
(assert (= n185 (* n21 n28)))
(declare-fun n186 () Int)
(assert (= n186 (* n20 n27)))
(declare-fun n187 () Int)
(assert (= n187 (* n21 n29)))
(declare-fun n188 () Int)
(assert (= n188 (* n22 n26)))
(declare-fun n189 () Int)
(assert (= n189 (* n23 n28)))
(declare-fun n190 () Int)
(assert (= n190 (* n22 n27)))
(declare-fun n191 () Int)
(assert (= n191 (* n23 n29)))
(declare-fun n192 () Int)
(assert (= n192 (+ n184 n185)))
(declare-fun n193 () Int)
(assert (= n193 (+ n186 n187)))
(declare-fun n194 () Int)
(assert (= n194 (+ n188 n189)))
(declare-fun n195 () Int)
(assert (= n195 (+ n190 n191)))
(declare-fun n196 () Int)
(assert (= n196 (* n20 n42)))
(declare-fun n197 () Int)
(assert (= n197 (* n21 n43)))
(declare-fun n198 () Int)
(assert (= n198 (* n22 n42)))
(declare-fun n199 () Int)
(assert (= n199 (* n23 n43)))
(declare-fun n200 () Int)
(assert (= n200 (+ n196 n197)))
(declare-fun n201 () Int)
(assert (= n201 (+ n198 n199)))
(declare-fun n202 () Int)
(assert (= n202 (+ n18 n200)))
(declare-fun n203 () Int)
(assert (= n203 (+ n19 n201)))
(declare-fun n204 () Int)
(assert (= n204 (* n20 n52)))
(declare-fun n205 () Int)
(assert (= n205 (* n21 n54)))
(declare-fun n206 () Int)
(assert (= n206 (* n20 n53)))
(declare-fun n207 () Int)
(assert (= n207 (* n21 n55)))
(declare-fun n208 () Int)
(assert (= n208 (* n22 n52)))
(declare-fun n209 () Int)
(assert (= n209 (* n23 n54)))
(declare-fun n210 () Int)
(assert (= n210 (* n22 n53)))
(declare-fun n211 () Int)
(assert (= n211 (* n23 n55)))
(declare-fun n212 () Int)
(assert (= n212 (+ n204 n205)))
(declare-fun n213 () Int)
(assert (= n213 (+ n206 n207)))
(declare-fun n214 () Int)
(assert (= n214 (+ n208 n209)))
(declare-fun n215 () Int)
(assert (= n215 (+ n210 n211)))
(assert (>= n182 n202))
(assert (>= n183 n203))
(assert (>= n192 n212))
(assert (>= n193 n213))
(assert (>= n194 n214))
(assert (>= n195 n215))
(declare-fun n216 () Int)
(assert (= n216 (* n32 n18)))
(declare-fun n217 () Int)
(assert (= n217 (* n33 n19)))
(declare-fun n218 () Int)
(assert (= n218 (* n34 n18)))
(declare-fun n219 () Int)
(assert (= n219 (* n35 n19)))
(declare-fun n220 () Int)
(assert (= n220 (+ n216 n217)))
(declare-fun n221 () Int)
(assert (= n221 (+ n218 n219)))
(declare-fun n222 () Int)
(assert (= n222 (+ n30 n220)))
(declare-fun n223 () Int)
(assert (= n223 (+ n31 n221)))
(declare-fun n224 () Int)
(assert (= n224 (* n32 n20)))
(declare-fun n225 () Int)
(assert (= n225 (* n33 n22)))
(declare-fun n226 () Int)
(assert (= n226 (* n32 n21)))
(declare-fun n227 () Int)
(assert (= n227 (* n33 n23)))
(declare-fun n228 () Int)
(assert (= n228 (* n34 n20)))
(declare-fun n229 () Int)
(assert (= n229 (* n35 n22)))
(declare-fun n230 () Int)
(assert (= n230 (* n34 n21)))
(declare-fun n231 () Int)
(assert (= n231 (* n35 n23)))
(declare-fun n232 () Int)
(assert (= n232 (+ n224 n225)))
(declare-fun n233 () Int)
(assert (= n233 (+ n226 n227)))
(declare-fun n234 () Int)
(assert (= n234 (+ n228 n229)))
(declare-fun n235 () Int)
(assert (= n235 (+ n230 n231)))
(declare-fun n236 () Int)
(assert (= n236 (* n26 n18)))
(declare-fun n237 () Int)
(assert (= n237 (* n27 n19)))
(declare-fun n238 () Int)
(assert (= n238 (* n28 n18)))
(declare-fun n239 () Int)
(assert (= n239 (* n29 n19)))
(declare-fun n240 () Int)
(assert (= n240 (+ n236 n237)))
(declare-fun n241 () Int)
(assert (= n241 (+ n238 n239)))
(declare-fun n242 () Int)
(assert (= n242 (+ n24 n240)))
(declare-fun n243 () Int)
(assert (= n243 (+ n25 n241)))
(declare-fun n244 () Int)
(assert (= n244 (* n26 n20)))
(declare-fun n245 () Int)
(assert (= n245 (* n27 n22)))
(declare-fun n246 () Int)
(assert (= n246 (* n26 n21)))
(declare-fun n247 () Int)
(assert (= n247 (* n27 n23)))
(declare-fun n248 () Int)
(assert (= n248 (* n28 n20)))
(declare-fun n249 () Int)
(assert (= n249 (* n29 n22)))
(declare-fun n250 () Int)
(assert (= n250 (* n28 n21)))
(declare-fun n251 () Int)
(assert (= n251 (* n29 n23)))
(declare-fun n252 () Int)
(assert (= n252 (+ n244 n245)))
(declare-fun n253 () Int)
(assert (= n253 (+ n246 n247)))
(declare-fun n254 () Int)
(assert (= n254 (+ n248 n249)))
(declare-fun n255 () Int)
(assert (= n255 (+ n250 n251)))
(assert (>= n222 n242))
(assert (>= n223 n243))
(assert (>= n232 n252))
(assert (>= n233 n253))
(assert (>= n234 n254))
(assert (>= n235 n255))
(assert (> n79 n89))
(check-sat)
(exit)
